CMD:
./solvers/bin/cadical --plain --no-reduce -t 1600 ./data/cnfs//qspiflash_dualflexpress_divthree-p010/qspiflash_dualflexpress_divthree-p010.42.cnf

c --- [ banner ] -------------------------------------------------------------
c 
c CaDiCaL SAT Solver
c Copyright (c) 2016-2024
c A. Biere, M. Fleury, N. Froleyks, K. Fazekas, F. Pollitt, T. Faller
c JKU Linz, University of Freiburg, TU Wien
c 
c Version 2.1.3 5296d3d2a9bf48c154ab2acb5e44625776d821bf
c g++ (Gentoo 12.3.1_p20230526 p2) 12.3.1 20230526 -Wall -Wextra -O3 -DNDEBUG
c Sat Aug 9 07:26:21 PDT 2025 Linux cedar2.int.cedar.computecanada.ca 5.14.0-362.24.2.el9_3.x86_64 x86_64
c 
c --- [ limit ] --------------------------------------------------------------
c 
c setting time limit to 1600 seconds real time (due to '-t 1600')
c 
c --- [ parsing input ] ------------------------------------------------------
c 
c reading DIMACS file from './data/cnfs//qspiflash_dualflexpress_divthree-p010/qspiflash_dualflexpress_divthree-p010.42.cnf'
c opening file to read './data/cnfs//qspiflash_dualflexpress_divthree-p010/qspiflash_dualflexpress_divthree-p010.42.cnf'
c found 'p cnf 127007 370181' header
c parsed 370181 clauses in 0.07 seconds process time
c 
c --- [ options ] ------------------------------------------------------------
c 
c   --compact=false                (different from default 'true')
c   --decompose=false              (different from default 'true')
c   --deduplicate=false            (different from default 'true')
c   --elim=false                   (different from default 'true')
c   --probe=false                  (different from default 'true')
c   --reduce=false                 (different from default 'true')
c   --subsume=false                (different from default 'true')
c   --ternary=false                (different from default 'true')
c   --transred=false               (different from default 'true')
c   --vivify=false                 (different from default 'true')
c 
c --- [ solving ] ------------------------------------------------------------
c 
c time measured in process time since initialization
c 
c  seconds  reductions  redundant  irredundant
c         MB    restarts       trail       variables
c          level   conflicts       glue          remaining
c 
c *  0.07 60  0 0   0    0    0  0% 0 350622 113914 90%
c {  0.11 62  0 0   0    0    0  0% 0 350622 113914 90%
c i  0.12 62 15 0   0   10    2 22% 1 350622 113901 90%
c i  0.12 62 11 0   0   11    2 21% 0 350622 113900 90%
c i  0.12 62 48 0   0   14    4 19% 1 350622 113892 90%
c i  0.14 62 81 0   0   36   21 19% 2 350622 113843 90%
c i  0.15 63 57 0   0   85   68 21% 2 350622 113830 90%
c i  0.16 63 49 0   4  140  115 21% 2 350622 113818 90%
c i  0.16 63 48 0   6  149  123 21% 2 350622 113778 90%
c i  0.18 63 44 0  21  204  171 21% 2 350622 113777 90%
c i  0.18 63 42 0  26  224  186 20% 2 350622 113767 90%
c i  0.18 63 40 0  30  242  202 20% 3 350622 113732 90%
c i  0.18 63 40 0  31  243  202 20% 3 350622 113717 90%
c i  0.19 63 37 0  39  288  243 19% 3 350622 113709 90%
c i  0.19 63 37 0  39  307  260 19% 2 350622 113693 90%
c i  0.19 63 34 0  39  374  321 18% 2 350622 113673 90%
c i  0.19 63 34 0  39  375  321 18% 2 350622 113660 89%
c i  0.19 63 33 0  39  387  331 18% 2 350622 113652 89%
c i  0.19 63 33 0  39  390  333 18% 2 350622 113625 89%
c i  0.19 63 32 0  39  404  344 17% 2 350622 113615 89%
c 
c  seconds  reductions  redundant  irredundant
c         MB    restarts       trail       variables
c          level   conflicts       glue          remaining
c 
c i  0.20 63 32 0  39  420  358 17% 2 350622 113605 89%
c i  0.20 63 31 0  39  425  362 17% 2 350622 113595 89%
c i  0.20 63 30 0  39  442  373 17% 2 350622 113589 89%
c i  0.21 63 33 0  53  537  456 17% 2 350622 113511 89%
c i  0.21 63 32 0  57  551  468 17% 2 350622 113440 89%
c i  0.21 63 31 0  70  610  525 17% 3 350622 113435 89%
c i  0.22 63 29 0  90  681  589 17% 3 350622 113432 89%
c i  0.22 63 29 0  93  694  598 17% 3 350622 113427 89%
c }  0.25 63 27 0 158 1000  887 16% 3 350622 113427 89%
c [  0.25 63  0 0 158 1000  887  0% 0 350622 113427 89%
c O  0.26 63 529 0 158 1003  890 51% 1 350622 113427 89%
c i  0.45 63 470 0 158 1910 1684 32% 6 350622 113426 89%
c i  0.45 63 469 0 158 1922 1687 32% 6 350622 113409 89%
c ]  0.63 64 697 0 159 3000 2658 56% 7 350622 113408 89%
c {  0.63 64 27 0 159 3000 2658 16% 3 350622 113408 89%
c i  0.63 64 27 0 160 3003 2660 16% 3 350622 113404 89%
c F  0.63 64 27 0 160 3004 2660 16% 3 350622 113404 89%
c i  0.63 64 27 0 160 3004 2660 16% 3 350622 113400 89%
c i  0.64 64 27 0 161 3029 2675 16% 3 350622 113396 89%
c i  0.66 64 27 0 178 3110 2743 16% 3 350622 113388 89%
c 
c  seconds  reductions  redundant  irredundant
c         MB    restarts       trail       variables
c          level   conflicts       glue          remaining
c 
c i  0.67 64 27 0 188 3151 2773 16% 3 350622 113387 89%
c i  0.67 64 27 0 194 3178 2798 16% 3 350622 113383 89%
c i  0.68 64 27 0 210 3240 2854 16% 3 350622 113375 89%
c i  0.68 64 27 0 211 3242 2855 16% 3 350622 113367 89%
... skipped 37 lines ...
c ]  3.66 67 178 0 736 15000 13364 36% 11 350622 112967 89%
c {  3.66 67 32 0 736 15000 13364 20% 5 350622 112967 89%
c B  3.66 67 32 0 738 15008 13371 20% 5 350622 112967 89%
c i  4.07 67 30 0 952 16032 14275 20% 5 350622 112963 89%
c 
c  seconds  reductions    redundant  irredundant
c         MB    restarts         trail       variables
c          level    conflicts        glue          remaining
c 
c i  4.18 67 30 0 992 16368 14576 21% 5 350622 112962 89%
c i  4.18 67 30 0 993 16369 14576 21% 5 350622 112949 89%
c i  4.19 67 30 0 1000 16414 14608 21% 5 350622 112935 89%
c i  4.63 67 28 0 1170 17555 15644 21% 6 350622 112932 89%
c i  4.80 67 28 0 1237 17908 15964 21% 6 350622 112924 89%
c i  5.09 68 28 0 1364 18456 16456 21% 6 350622 112917 89%
c i  5.46 68 28 0 1472 19200 17103 22% 6 350622 112911 89%
c i  5.97 68 27 0 1666 20136 17956 22% 6 350622 112907 89%
c i  5.97 68 27 0 1666 20137 17956 22% 6 350622 112899 89%
c i  6.14 68 27 0 1683 20697 18424 22% 6 350622 112883 89%
c W  6.43 68 27 0 1748 21010 18057 22% 6 321795 112883 89%
c i  7.23 68 27 0 1969 22393 19316 23% 7 321795 112881 89%
c i  7.23 68 27 0 1969 22422 19339 23% 7 321795 112879 89%
c i  7.79 68 27 0 2147 23456 20266 23% 7 321795 112835 89%
c i  7.93 68 27 0 2186 23617 20414 23% 7 321795 112827 89%
c i  7.96 68 26 0 2195 23660 20451 23% 7 321795 112826 89%
c i  9.13 68 26 0 2483 25137 21754 23% 7 321795 112825 89%
c i  9.76 68 26 0 2637 25930 22438 24% 7 321795 112808 89%
c i 10.22 68 25 0 2734 26936 23324 24% 7 321795 112799 89%
c F 10.70 68 24 0 2853 28011 24204 24% 7 321795 112799 89%
c 
c  seconds  reductions     redundant  irredundant
c         MB    restarts          trail       variables
c          level     conflicts        glue          remaining
c 
c i 11.12 68 24 0 2885 28956 24955 25% 7 321795 112538 89%
c i 11.27 68 24 0 2921 29223 25182 25% 7 321795 112530 89%
c i 11.49 68 23 0 2926 29870 25662 25% 7 321795 111323 88%
c i 11.82 68 23 0 2977 30326 26007 25% 7 321795 111319 88%
c i 12.00 68 23 0 2984 30776 26355 26% 7 321795 111315 88%
c i 12.11 68 23 0 2994 30889 26454 26% 7 321795 111313 88%
c } 12.23 68 23 0 3021 31000 26555 26% 7 321795 111313 88%
c [ 12.23 68 178 0 3021 31000 26555 36% 11 321795 111313 88%
c i 12.43 68 173 0 3021 31327 26816 36% 11 321795 110760 87%
c i 12.44 68 173 0 3021 31333 26816 36% 11 321795 95300 75%
c ] 12.44 68 173 0 3021 31338 26819 36% 11 321795 77613 61%
c 0 12.44 68 173 0 3021 31338 26819 36% 11 321795 77613 61%
c 
c --- [ result ] -------------------------------------------------------------
c 
s UNSATISFIABLE
c 
c --- [ run-time profiling ] -------------------------------------------------
c 
c process time taken by individual solving procedures
c (percentage relative to process time for solving)
c 
c        12.37  100.00% search
c         9.36   75.69% unstable
c         2.83   22.91% stable
c         0.13    1.07% walk
c         0.07    0.57% parse
c         0.04    0.33% lucky
c         0.00    0.00% simplify
c   =================================
c        12.37   99.43% solve
c 
c last line shows process time for solving
c (percentage relative to total process time)
c 
c --- [ statistics ] ---------------------------------------------------------
c 
c chronological:             10469        33.41 %  of conflicts
c conflicts:                 31338      2532.80    per second
c decisions:                110829      8957.44    per second
c fixed:                     49360        38.86 %  of all variables
c learned:                   30045        95.87 %  per conflict
c learned_lits:            1543245       100.00 %  learned literals
c minimized:                     0         0.00 %  learned literals
c shrunken:                 404306        26.20 %  learned literals
c minishrunken:             342166        22.17 %  learned literals
c otfs:                        215         0.69 %  of conflict
c propagations:          106052534         8.57 M  per second
c rephased:                      7      4476.86    interval
c restarts:                   3021        10.37    interval
c stabilizing:                   3        32.99 %  of conflicts
c subsumed:                   2480         0.65 %  of all clauses
c strengthened:                212         0.06 %  of all clauses
c walked:                        1     31338.00    interval
c 
c seconds are measured in process time for solving
c 
c --- [ resources ] ----------------------------------------------------------
c 
c total process time since initialization:        12.44    seconds
c total real time since initialization:           12.59    seconds
c maximum resident set size of process:           69.45    MB
c 
c --- [ shutting down ] ------------------------------------------------------
c 
c exit 20
